25 40
1 2 2
1 6 2
2 3 3
2 7 1
3 4 3
3 8 4
4 5 4
4 9 3
5 10 1
6 7 5
6 11 2
7 8 5
7 12 3
8 9 1
8 13 3
9 10 2
9 14 2
10 15 2
11 12 5
11 16 2
12 13 3
12 17 1
13 14 2
13 18 4
14 15 2
14 19 5
15 20 1
16 17 4
16 21 5
17 18 5
17 22 3
18 19 5
18 23 4
19 20 4
19 24 2
20 25 5
21 22 5
22 23 2
23 24 5
24 25 3
